0
Node Left Objective IInf Best_Integer Best_Bound ItCnt Gap
0+ 0 nan nan 136.4723 0.0000 nan 100.00%
0+ 0 nan nan 99.1655 0.0000 nan 100.00%
0 0 33.3849 15 99.1655 33.3849 159 66.33%
0+ 0 nan nan 85.5351 33.3849 nan 60.97%
0 0 33.5067 22 85.5351 Disjcuts:9 180 60.83%
0 0 34.6881 22 85.5351 Disjcuts:16 200 59.45%
0+ 0 nan nan 70.7087 34.6881 nan 50.94%
0 0 36.1412 22 70.7087 Disjcuts:20 225 48.89%
0 0 36.8349 26 70.7087 Disjcuts:20 267 47.91%
0 0 36.9072 29 70.7087 Disjcuts:14 291 47.80%
0 0 36.9108 28 70.7087 Disjcuts:2 294 47.80%
0+ 0 nan nan 70.3587 36.9108 nan 47.54%
0 2 36.9108 28 70.3587 37.0949 294 47.28%
CPXPARAM_MIP_Cuts_Disjunctive 19
1
Node Left Objective IInf Best_Integer Best_Bound ItCnt Gap
0+ 0 nan nan 136.4723 0.0000 nan 100.00%
0+ 0 nan nan 99.1655 0.0000 nan 100.00%
0 0 0.0000 28 99.1655 0.0000 115 100.00%
0+ 0 nan nan 78.9783 0.0000 nan 100.00%
0 0 0.0000 22 78.9783 Disjcuts:1 117 100.00%
0+ 0 nan nan 68.9499 0.0000 nan 100.00%
0 0 0.0000 23 68.9499 Disjcuts:15 146 100.00%
0+ 0 nan nan 35.5554 0.0000 nan 100.00%
0 0 0.0000 21 35.5554 Disjcuts:3 157 100.00%
0+ 0 nan nan 21.1516 0.0000 nan 100.00%
0 2 0.0000 21 21.1516 0.0000 157 100.00%
CPXPARAM_MIP_Cuts_Disjunctive 3
2
Node Left Objective IInf Best_Integer Best_Bound ItCnt Gap
0+ 0 nan nan 136.4723 0.0000 nan 100.00%
0+ 0 nan nan 69.8576 0.0000 nan 100.00%
0 0 24.3849 14 69.8576 24.3849 151 65.09%
0 0 24.9063 23 69.8576 Disjcuts:10 176 64.35%
0 0 26.1845 21 69.8576 Disjcuts:20 197 62.52%
0+ 0 nan nan 63.1785 26.1845 nan 58.55%
0 0 26.9631 23 63.1785 Disjcuts:11 213 57.32%
0 0 27.6273 25 63.1785 Disjcuts:10 230 56.27%
0 0 27.8122 25 63.1785 Disjcuts:7 249 55.98%
0+ 0 nan nan 62.5858 27.8122 nan 55.56%
0 0 27.9790 27 62.5858 Disjcuts:3 256 55.29%
0+ 0 nan nan 44.6770 27.9790 nan 37.37%
0 2 27.9790 27 44.6770 28.0029 256 37.32%
CPXPARAM_MIP_Cuts_Disjunctive 17
3
Node Left Objective IInf Best_Integer Best_Bound ItCnt Gap
0+ 0 nan nan 136.4723 0.0000 nan 100.00%
0+ 0 nan nan 75.0384 0.0000 nan 100.00%
0 0 0.0000 24 75.0384 0.0000 120 100.00%
0+ 0 nan nan 36.5345 0.0000 nan 100.00%
0+ 0 nan nan 33.9942 0.0000 nan 100.00%
0+ 0 nan nan 31.0672 0.0000 nan 100.00%
0 2 0.0000 22 31.0672 0.0000 120 100.00%
CPXPARAM_MIP_Cuts_Disjunctive 0
4
Node Left Objective IInf Best_Integer Best_Bound ItCnt Gap
0+ 0 nan nan 115.1924 0.0000 nan 100.00%
0+ 0 nan nan 108.1598 0.0000 nan 100.00%
0+ 0 nan nan 98.2525 0.0000 nan 100.00%
0 0 43.8454 17 98.2525 43.8454 151 55.37%
0+ 0 nan nan 69.2925 43.8454 nan 36.72%
0 0 43.8454 17 69.2925 Disjcuts:5 168 36.72%
0+ 0 nan nan 63.6842 43.8454 nan 31.15%
0 0 44.3512 20 63.6842 Disjcuts:8 192 30.36%
0+ 0 nan nan 56.8420 44.3512 nan 21.97%
0 0 44.5839 20 56.8420 Disjcuts:16 212 21.57%
0 0 44.6423 18 56.8420 Disjcuts:10 232 21.46%
0 0 44.8851 19 56.8420 Disjcuts:9 245 21.04%
0 0 44.9726 19 56.8420 Disjcuts:1 251 20.88%
0 2 44.9726 19 56.8420 45.0430 251 20.76%
CPXPARAM_MIP_Cuts_Disjunctive 14
5
Node Left Objective IInf Best_Integer Best_Bound ItCnt Gap
0+ 0 nan nan 115.1924 0.0000 nan 100.00%
0+ 0 nan nan 108.1598 0.0000 nan 100.00%
0+ 0 nan nan 79.8300 0.0000 nan 100.00%
0 0 0.0000 27 79.8300 0.0000 119 100.00%
0+ 0 nan nan 36.1020 0.0000 nan 100.00%
0 0 0.0000 22 36.1020 Disjcuts:9 135 100.00%
0+ 0 nan nan 27.2850 0.0000 nan 100.00%
0 0 0.0000 24 27.2850 Disjcuts:19 201 100.00%
0 0 0.0000 24 27.2850 Disjcuts:3 211 100.00%
0 2 0.0000 20 27.2850 0.0000 211 100.00%
CPXPARAM_MIP_Cuts_Disjunctive 3
6
Node Left Objective IInf Best_Integer Best_Bound ItCnt Gap
0+ 0 nan nan 115.1924 0.0000 nan 100.00%
0+ 0 nan nan 81.9438 0.0000 nan 100.00%
0 0 43.8454 12 81.9438 43.8454 158 46.49%
0+ 0 nan nan 60.6985 43.8454 nan 27.77%
0 0 43.8454 11 60.6985 Disjcuts:6 171 27.77%
0+ 0 nan nan 50.4435 43.8454 nan 13.08%
0 0 43.9974 18 50.4435 Disjcuts:8 190 12.78%
0 0 44.4225 20 50.4435 Disjcuts:10 201 11.94%
0 0 44.7360 20 50.4435 Disjcuts:9 223 11.31%
0 0 44.7626 19 50.4435 Disjcuts:4 230 11.26%
0 0 44.7626 19 50.4435 Disjcuts:3 231 11.26%
0 2 44.8916 12 50.4435 44.9058 231 10.98%
CPXPARAM_MIP_Cuts_Disjunctive 19
7
Node Left Objective IInf Best_Integer Best_Bound ItCnt Gap
0+ 0 nan nan 115.1924 0.0000 nan 100.00%
0+ 0 nan nan 81.9438 0.0000 nan 100.00%
0 0 0.0000 23 81.9438 0.0000 124 100.00%
0+ 0 nan nan 22.7644 0.0000 nan 100.00%
0 0 0.0000 15 22.7644 Disjcuts:5 133 100.00%
0+ 0 nan nan 14.7169 0.0000 nan 100.00%
0 0 0.0000 16 14.7169 Disjcuts:10 176 100.00%
0+ 0 nan nan 14.7054 0.0000 nan 100.00%
0 0 0.0000 17 14.7054 Disjcuts:6 194 100.00%
0+ 0 nan nan 14.1910 0.0000 nan 100.00%
0+ 0 nan nan 11.5807 0.0000 nan 100.00%
0 2 0.0000 15 11.5807 0.0000 194 100.00%
CPXPARAM_MIP_Cuts_Disjunctive 4
8
Node Left Objective IInf Best_Integer Best_Bound ItCnt Gap
0+ 0 nan nan 131.6037 0.0000 nan 100.00%
0+ 0 nan nan 111.2422 0.0000 nan 100.00%
0 0 56.1710 14 111.2422 56.1710 148 49.51%
0+ 0 nan nan 111.0462 56.1710 nan 49.42%
0 0 56.1809 19 111.0462 Disjcuts:9 168 49.41%
0+ 0 nan nan 90.7142 56.1809 nan 38.07%
0 0 56.9057 21 90.7142 Disjcuts:14 187 37.27%
0+ 0 nan nan 79.4107 56.9057 nan 28.34%
0 0 56.9812 25 79.4107 Disjcuts:14 206 28.24%
0 0 57.0164 22 79.4107 Disjcuts:14 234 28.20%
0+ 0 nan nan 77.7223 57.0164 nan 26.64%
0 0 57.1099 25 77.7223 Disjcuts:9 245 26.52%
0+ 0 nan nan 72.0943 57.1099 nan 20.78%
0 2 57.1099 25 72.0943 57.1206 245 20.77%
CPXPARAM_MIP_Cuts_Disjunctive 24
9
Node Left Objective IInf Best_Integer Best_Bound ItCnt Gap
0+ 0 nan nan 131.6037 0.0000 nan 100.00%
0+ 0 nan nan 111.2422 0.0000 nan 100.00%
0 0 0.0000 28 111.2422 0.0000 121 100.00%
0+ 0 nan nan 69.1407 0.0000 nan 100.00%
0 0 0.0000 23 69.1407 Disjcuts:2 123 100.00%
0+ 0 nan nan 51.4349 0.0000 nan 100.00%
0 0 0.0000 24 51.4349 Disjcuts:19 176 100.00%
0 0 0.0000 23 51.4349 Disjcuts:5 204 100.00%
0+ 0 nan nan 42.0784 0.0000 nan 100.00%
0+ 0 nan nan 35.7348 0.0000 nan 100.00%
0 2 0.0000 23 35.7348 0.0000 204 100.00%
CPXPARAM_MIP_Cuts_Disjunctive 3
10
Node Left Objective IInf Best_Integer Best_Bound ItCnt Gap
0+ 0 nan nan 131.6037 0.0000 nan 100.00%
0+ 0 nan nan 99.6733 0.0000 nan 100.00%
0 0 41.1710 14 99.6733 41.1710 157 58.69%
0 0 41.1710 15 99.6733 Disjcuts:10 178 58.69%
0 0 41.4316 17 99.6733 Disjcuts:13 194 58.43%
0+ 0 nan nan 87.4757 41.4316 nan 52.64%
0 0 42.9286 21 87.4757 Disjcuts:9 212 50.93%
0+ 0 nan nan 84.0135 42.9286 nan 48.90%
0 0 43.4587 21 84.0135 Disjcuts:7 230 48.27%
0 0 43.7903 22 84.0135 Disjcuts:5 247 47.88%
0 0 43.8912 22 84.0135 Disjcuts:2 255 47.76%
0+ 0 nan nan 76.5910 43.8912 nan 42.69%
0+ 0 nan nan 75.7913 43.8912 nan 42.09%
0+ 0 nan nan 73.6038 43.8912 nan 40.37%
0 2 43.8912 22 73.6038 43.9064 255 40.35%
CPXPARAM_MIP_Cuts_Disjunctive 17
11
Node Left Objective IInf Best_Integer Best_Bound ItCnt Gap
0+ 0 nan nan 131.6037 0.0000 nan 100.00%
0+ 0 nan nan 99.6733 0.0000 nan 100.00%
0 0 0.0000 23 99.6733 0.0000 120 100.00%
0+ 0 nan nan 65.2931 0.0000 nan 100.00%
0 0 0.0000 20 65.2931 Disjcuts:7 133 100.00%
0+ 0 nan nan 39.6301 0.0000 nan 100.00%
0 0 0.0000 20 39.6301 Disjcuts:15 163 100.00%
0+ 0 nan nan 34.9872 0.0000 nan 100.00%
0+ 0 nan nan 21.1855 0.0000 nan 100.00%
0 2 0.0000 18 21.1855 0.0000 163 100.00%
CPXPARAM_MIP_Cuts_Disjunctive 0
12
Node Left Objective IInf Best_Integer Best_Bound ItCnt Gap
0+ 0 nan nan 110.3567 0.0000 nan 100.00%
0+ 0 nan nan 96.6816 0.0000 nan 100.00%
0 0 34.1191 21 96.6816 34.1191 158 64.71%
0 0 34.1191 18 96.6816 Disjcuts:6 177 64.71%
0+ 0 nan nan 84.8389 34.1191 nan 59.78%
0 0 35.1084 24 84.8389 Disjcuts:10 196 58.62%
0+ 0 nan nan 73.5625 35.1084 nan 52.27%
0 0 36.1671 24 73.5625 Disjcuts:21 227 50.83%
0 0 36.5716 28 73.5625 Disjcuts:14 253 50.29%
0 0 37.1244 28 73.5625 Disjcuts:14 275 49.53%
0 0 37.2776 29 73.5625 Disjcuts:2 284 49.33%
0 0 37.3157 30 73.5625 Disjcuts:1 290 49.27%
0+ 0 nan nan 71.5606 37.3157 nan 47.85%
0 2 37.3157 30 71.5606 37.3362 290 47.83%
CPXPARAM_MIP_Cuts_Disjunctive 22
13
Node Left Objective IInf Best_Integer Best_Bound ItCnt Gap
0+ 0 nan nan 110.3567 0.0000 nan 100.00%
0+ 0 nan nan 96.6816 0.0000 nan 100.00%
0 0 0.0000 27 96.6816 0.0000 127 100.00%
0+ 0 nan nan 76.3632 0.0000 nan 100.00%
0 0 0.0000 23 76.3632 Disjcuts:1 137 100.00%
0+ 0 nan nan 70.4959 0.0000 nan 100.00%
0 0 0.0000 25 70.4959 Disjcuts:20 192 100.00%
0 0 0.0000 24 70.4959 Disjcuts:1 200 100.00%
0+ 0 nan nan 66.4937 0.0000 nan 100.00%
0+ 0 nan nan 50.2444 0.0000 nan 100.00%
0+ 0 nan nan 45.9893 0.0000 nan 100.00%
0+ 0 nan nan 41.3779 0.0000 nan 100.00%
0 2 0.0000 24 41.3779 0.0000 200 100.00%
CPXPARAM_MIP_Cuts_Disjunctive 1
14
Node Left Objective IInf Best_Integer Best_Bound ItCnt Gap
0+ 0 nan nan 110.3567 0.0000 nan 100.00%
0+ 0 nan nan 82.1268 0.0000 nan 100.00%
0 0 31.1191 14 82.1268 31.1191 165 62.11%
0+ 0 nan nan 72.3622 31.1191 nan 57.00%
0 0 31.1191 16 72.3622 Disjcuts:4 180 57.00%
0 0 32.0802 23 72.3622 Disjcuts:14 199 55.67%
0 0 32.9152 21 72.3622 Disjcuts:9 216 54.51%
0 0 33.6027 19 72.3622 Disjcuts:8 232 53.56%
0 0 34.3355 22 72.3622 Disjcuts:12 253 52.55%
0+ 0 nan nan 56.4000 34.3355 nan 39.12%
0 0 34.3730 24 56.4000 Disjcuts:2 257 39.05%
0+ 0 nan nan 52.6008 34.3730 nan 34.65%
0+ 0 nan nan 47.7691 34.3730 nan 28.04%
0 2 34.3730 24 47.7691 34.3950 257 28.00%
CPXPARAM_MIP_Cuts_Disjunctive 19
15
Node Left Objective IInf Best_Integer Best_Bound ItCnt Gap
0+ 0 nan nan 110.3567 0.0000 nan 100.00%
0+ 0 nan nan 82.1268 0.0000 nan 100.00%
0 0 0.0000 23 82.1268 0.0000 113 100.00%
0+ 0 nan nan 49.7602 0.0000 nan 100.00%
0+ 0 nan nan 39.6624 0.0000 nan 100.00%
0+ 0 nan nan 24.8381 0.0000 nan 100.00%
0 2 0.0000 18 24.8381 0.0000 113 100.00%
CPXPARAM_MIP_Cuts_Disjunctive 0
16
Node Left Objective IInf Best_Integer Best_Bound ItCnt Gap
0+ 0 nan nan 109.2984 0.0000 nan 100.00%
0+ 0 nan nan 97.6971 0.0000 nan 100.00%
0 0 41.5886 15 97.6971 41.5886 169 57.43%
0+ 0 nan nan 88.2052 41.5886 nan 52.85%
0 0 41.7154 24 88.2052 Disjcuts:11 191 52.71%
0+ 0 nan nan 80.9600 41.7154 nan 48.47%
0 0 42.1650 29 80.9600 Disjcuts:14 209 47.92%
0 0 42.6574 30 80.9600 Disjcuts:14 231 47.31%
0 0 42.7837 29 80.9600 Disjcuts:15 247 47.15%
0 0 42.8714 31 80.9600 Disjcuts:8 263 47.05%
0 0 42.8823 29 80.9600 Disjcuts:1 268 47.03%
0 0 42.8833 29 80.9600 Disjcuts:1 269 47.03%
0+ 0 nan nan 77.2182 42.8833 nan 44.46%
0 2 42.8833 29 77.2182 42.9020 269 44.44%
CPXPARAM_MIP_Cuts_Disjunctive 26
17
Node Left Objective IInf Best_Integer Best_Bound ItCnt Gap
0+ 0 nan nan 109.2984 0.0000 nan 100.00%
0+ 0 nan nan 97.6971 0.0000 nan 100.00%
0 0 0.0000 28 97.6971 0.0000 112 100.00%
0+ 0 nan nan 85.3739 0.0000 nan 100.00%
0 0 0.0000 25 85.3739 Disjcuts:4 117 100.00%
0+ 0 nan nan 64.0602 0.0000 nan 100.00%
0 0 0.0000 25 64.0602 Disjcuts:17 136 100.00%
0 0 0.0000 23 64.0602 Disjcuts:1 143 100.00%
0+ 0 nan nan 41.9204 0.0000 nan 100.00%
0+ 0 nan nan 32.0001 0.0000 nan 100.00%
0 2 0.0000 23 32.0001 0.0000 143 100.00%
CPXPARAM_MIP_Cuts_Disjunctive 1
18
Node Left Objective IInf Best_Integer Best_Bound ItCnt Gap
0+ 0 nan nan 109.2984 0.0000 nan 100.00%
0+ 0 nan nan 86.6088 0.0000 nan 100.00%
0 0 47.5886 9 86.6088 47.5886 159 45.05%
0+ 0 nan nan 60.8649 47.5886 nan 21.81%
0 0 47.5886 12 60.8649 Disjcuts:8 176 21.81%
0 0 48.1080 20 60.8649 Disjcuts:10 194 20.96%
0 0 48.4991 20 60.8649 Disjcuts:9 203 20.32%
0 0 48.6767 21 60.8649 Disjcuts:7 212 20.03%
0 0 48.7566 20 60.8649 Disjcuts:4 218 19.89%
0 0 48.7977 21 60.8649 Disjcuts:1 225 19.83%
0+ 0 nan nan 57.8993 48.7977 nan 15.72%
0 2 48.8637 16 57.8993 48.9943 225 15.38%
CPXPARAM_MIP_Cuts_Disjunctive 21
19
Node Left Objective IInf Best_Integer Best_Bound ItCnt Gap
0+ 0 nan nan 109.2984 0.0000 nan 100.00%
0+ 0 nan nan 86.6088 0.0000 nan 100.00%
0 0 0.0000 23 86.6088 0.0000 120 100.00%
0+ 0 nan nan 30.7528 0.0000 nan 100.00%
0 0 0.0000 21 30.7528 Disjcuts:10 163 100.00%
0 0 0.0000 23 30.7528 Disjcuts:16 220 100.00%
0 0 0.0000 19 30.7528 Disjcuts:5 231 100.00%
0 0 0.0000 22 30.7528 Disjcuts:17 278 100.00%
0+ 0 nan nan 25.5137 0.0000 nan 100.00%
0+ 0 nan nan 20.5654 0.0000 nan 100.00%
0 2 0.0000 16 20.5654 0.0000 278 100.00%
CPXPARAM_MIP_Cuts_Disjunctive 0
20
Node Left Objective IInf Best_Integer Best_Bound ItCnt Gap
0+ 0 nan nan 93.3792 0.0000 nan 100.00%
0+ 0 nan nan 84.6822 0.0000 nan 100.00%
0 0 25.2745 20 84.6822 25.2745 154 70.15%
0+ 0 nan nan 41.6508 25.2745 nan 39.32%
0 0 25.3821 29 41.6508 Disjcuts:12 191 39.06%
0 0 25.8750 26 41.6508 Disjcuts:26 227 37.88%
0 0 26.3221 26 41.6508 Disjcuts:7 253 36.80%
0+ 0 nan nan 35.3785 26.3221 nan 25.60%
0 0 26.3323 28 35.3785 Disjcuts:4 263 25.57%
0 0 26.5586 26 35.3785 Disjcuts:5 284 24.93%
0 0 26.5940 23 35.3785 Disjcuts:2 294 24.83%
0 2 26.6380 18 35.3785 26.7636 294 24.35%
CPXPARAM_MIP_Cuts_Disjunctive 19
21
Node Left Objective IInf Best_Integer Best_Bound ItCnt Gap
0+ 0 nan nan 93.3792 0.0000 nan 100.00%
0+ 0 nan nan 84.6822 0.0000 nan 100.00%
0 0 0.0000 27 84.6822 0.0000 119 100.00%
0+ 0 nan nan 44.4240 0.0000 nan 100.00%
0+ 0 nan nan 28.6436 0.0000 nan 100.00%
0+ 0 nan nan 21.5128 0.0000 nan 100.00%
0+ 0 nan nan 21.3939 0.0000 nan 100.00%
0 2 0.0000 22 21.3939 0.0000 119 100.00%
CPXPARAM_MIP_Cuts_Disjunctive 0
22
Node Left Objective IInf Best_Integer Best_Bound ItCnt Gap
0+ 0 nan nan 93.3792 0.0000 nan 100.00%
0+ 0 nan nan 77.4137 0.0000 nan 100.00%
0 0 25.2745 12 77.4137 25.2745 170 67.35%
0+ 0 nan nan 37.8382 25.2745 nan 33.20%
0 0 25.2745 9 37.8382 Disjcuts:3 179 33.20%
0 0 25.2745 11 37.8382 Disjcuts:7 189 33.20%
0 0 25.4115 21 37.8382 Disjcuts:4 213 32.84%
0 0 25.6675 20 37.8382 Disjcuts:20 227 32.17%
0 0 26.0567 21 37.8382 Disjcuts:14 254 31.14%
0+ 0 nan nan 28.8155 26.0567 nan 9.57%
0 2 26.4781 8 28.8155 26.7198 254 7.27%
CPXPARAM_MIP_Cuts_Disjunctive 16
23
Node Left Objective IInf Best_Integer Best_Bound ItCnt Gap
0+ 0 nan nan 93.3792 0.0000 nan 100.00%
0+ 0 nan nan 77.4137 0.0000 nan 100.00%
0 0 0.0000 22 77.4137 0.0000 113 100.00%
0+ 0 nan nan 17.3568 0.0000 nan 100.00%
0 0 0.0000 17 17.3568 Disjcuts:2 115 100.00%
0+ 0 nan nan 9.1238 0.0000 nan 100.00%
0 0 0.0000 17 9.1238 Disjcuts:12 150 100.00%
0+ 0 nan nan 8.6204 0.0000 nan 100.00%
0 0 0.0000 14 8.6204 Disjcuts:5 169 100.00%
0 0 0.0000 15 8.6204 Disjcuts:11 178 100.00%
0 2 0.0000 15 8.6204 0.0000 178 100.00%
CPXPARAM_MIP_Cuts_Disjunctive 3
24
Node Left Objective IInf Best_Integer Best_Bound ItCnt Gap
0+ 0 nan nan 94.5045 0.0000 nan 100.00%
0+ 0 nan nan 83.7373 0.0000 nan 100.00%
0 0 29.8402 15 83.7373 29.8402 167 64.36%
0+ 0 nan nan 51.8847 29.8402 nan 42.49%
0 0 29.9846 28 51.8847 Disjcuts:9 198 42.21%
0+ 0 nan nan 51.5171 29.9846 nan 41.80%
0 0 30.6641 28 51.5171 Disjcuts:23 230 40.48%
0+ 0 nan nan 43.5520 30.6641 nan 29.59%
0 0 31.4553 26 43.5520 Disjcuts:22 251 27.78%
0 0 32.0852 27 43.5520 Disjcuts:17 280 26.33%
0 0 32.6939 28 43.5520 Disjcuts:16 306 24.93%
0 0 32.7183 28 43.5520 Disjcuts:1 308 24.88%
0+ 0 nan nan 42.2607 32.7183 nan 22.58%
0 2 32.9202 21 42.2607 33.0165 308 21.87%
CPXPARAM_MIP_Cuts_Disjunctive 21
25
Node Left Objective IInf Best_Integer Best_Bound ItCnt Gap
0+ 0 nan nan 94.5045 0.0000 nan 100.00%
0+ 0 nan nan 83.7373 0.0000 nan 100.00%
0 0 0.0000 27 83.7373 0.0000 118 100.00%
0+ 0 nan nan 36.3258 0.0000 nan 100.00%
0+ 0 nan nan 18.8427 0.0000 nan 100.00%
0+ 0 nan nan 15.2937 0.0000 nan 100.00%
0 2 0.0000 18 15.2937 0.0000 118 100.00%
CPXPARAM_MIP_Cuts_Disjunctive 0
26
Node Left Objective IInf Best_Integer Best_Bound ItCnt Gap
0+ 0 nan nan 94.5045 0.0000 nan 100.00%
0+ 0 nan nan 77.5045 0.0000 nan 100.00%
0 0 29.8490 11 77.5045 29.8490 180 61.49%
0+ 0 nan nan 39.9570 29.8490 nan 25.30%
0 0 29.8490 20 39.9570 Disjcuts:4 202 25.30%
0 0 30.9624 22 39.9570 Disjcuts:16 223 22.51%
0+ 0 nan nan 39.1708 30.9624 nan 20.96%
0 0 31.7807 22 39.1708 Disjcuts:11 240 18.87%
0 0 32.3709 23 39.1708 Disjcuts:15 262 17.36%
0 0 32.8077 23 39.1708 Disjcuts:15 301 16.24%
0+ 0 nan nan 38.2631 32.8077 nan 14.26%
0+ 0 nan nan 38.2207 32.8077 nan 14.16%
0 2 33.1428 13 38.2207 33.2823 301 12.92%
CPXPARAM_MIP_Cuts_Disjunctive 17
27
Node Left Objective IInf Best_Integer Best_Bound ItCnt Gap
0+ 0 nan nan 94.5045 0.0000 nan 100.00%
0+ 0 nan nan 78.5671 0.0000 nan 100.00%
0 0 0.0000 22 78.5671 0.0000 116 100.00%
0+ 0 nan nan 24.3492 0.0000 nan 100.00%
0+ 0 nan nan 17.6947 0.0000 nan 100.00%
0+ 0 nan nan 15.7430 0.0000 nan 100.00%
0+ 0 nan nan 13.8807 0.0000 nan 100.00%
0 2 0.0000 14 13.8807 0.0000 116 100.00%
CPXPARAM_MIP_Cuts_Disjunctive 0
28
Node Left Objective IInf Best_Integer Best_Bound ItCnt Gap
0+ 0 nan nan 133.7092 0.0000 nan 100.00%
0+ 0 nan nan 129.6212 0.0000 nan 100.00%
0+ 0 nan nan 108.6480 0.0000 nan 100.00%
0 0 56.4662 14 108.6480 56.4662 159 48.03%
0+ 0 nan nan 85.0734 56.4662 nan 33.63%
0 0 56.4662 20 85.0734 Disjcuts:5 178 33.63%
0+ 0 nan nan 84.4585 56.4662 nan 33.14%
0 0 57.2000 26 84.4585 Disjcuts:11 204 32.27%
0 0 58.2810 24 84.4585 Disjcuts:20 223 30.99%
0 0 58.5116 29 84.4585 Disjcuts:12 242 30.72%
0 0 59.3066 27 84.4585 Disjcuts:14 269 29.78%
0+ 0 nan nan 78.5480 59.3066 nan 24.50%
0+ 0 nan nan 77.7882 59.3066 nan 23.76%
0 2 59.3066 27 77.7882 59.3102 269 23.75%
CPXPARAM_MIP_Cuts_Disjunctive 18
29
Node Left Objective IInf Best_Integer Best_Bound ItCnt Gap
0+ 0 nan nan 133.7092 0.0000 nan 100.00%
0+ 0 nan nan 129.6212 0.0000 nan 100.00%
0 0 0.0000 27 129.6212 0.0000 120 100.00%
0+ 0 nan nan 34.2931 0.0000 nan 100.00%
0 0 0.0000 25 34.2931 Disjcuts:10 153 100.00%
0+ 0 nan nan 24.5549 0.0000 nan 100.00%
0 0 0.0000 28 24.5549 Disjcuts:22 212 100.00%
0 0 0.0000 24 24.5549 Disjcuts:8 243 100.00%
0 0 0.0000 26 24.5549 Disjcuts:16 291 100.00%
0+ 0 nan nan 19.7734 0.0000 nan 100.00%
0 2 0.0000 23 19.7734 0.0000 291 100.00%
CPXPARAM_MIP_Cuts_Disjunctive 2
30
Node Left Objective IInf Best_Integer Best_Bound ItCnt Gap
0+ 0 nan nan 133.7092 0.0000 nan 100.00%
0+ 0 nan nan 114.7297 0.0000 nan 100.00%
0 0 62.4662 6 114.7297 62.4662 162 45.55%
0+ 0 nan nan 72.5749 62.4662 nan 13.93%
0 0 62.4662 15 72.5749 Disjcuts:5 181 13.93%
0+ 0 nan nan 72.4362 62.4662 nan 13.76%
0 0 62.4662 15 72.4362 Disjcuts:2 193 13.76%
0+ 0 nan nan 72.1149 62.4662 nan 13.38%
0+ 0 nan nan 71.7589 62.4662 nan 12.95%
0 2 62.4662 7 71.7589 62.4662 193 12.95%
CPXPARAM_MIP_Cuts_Disjunctive 6
31
Node Left Objective IInf Best_Integer Best_Bound ItCnt Gap
0+ 0 nan nan 133.7092 0.0000 nan 100.00%
0+ 0 nan nan 114.7297 0.0000 nan 100.00%
0 0 0.0000 23 114.7297 0.0000 132 100.00%
0+ 0 nan nan 51.7630 0.0000 nan 100.00%
0 0 0.0000 21 51.7630 Disjcuts:9 144 100.00%
0+ 0 nan nan 39.4231 0.0000 nan 100.00%
0 0 0.0000 22 39.4231 Disjcuts:16 188 100.00%
0+ 0 nan nan 38.5715 0.0000 nan 100.00%
0 0 0.0000 21 38.5715 Disjcuts:1 197 100.00%
0+ 0 nan nan 22.8080 0.0000 nan 100.00%
0+ 0 nan nan 21.9295 0.0000 nan 100.00%
0+ 0 nan nan 20.4262 0.0000 nan 100.00%
0 2 0.0000 21 20.4262 0.0000 197 100.00%
CPXPARAM_MIP_Cuts_Disjunctive 1
32
Node Left Objective IInf Best_Integer Best_Bound ItCnt Gap
0+ 0 nan nan 110.7059 0.0000 nan 100.00%
0+ 0 nan nan 93.8685 0.0000 nan 100.00%
0+ 0 nan nan 89.9070 0.0000 nan 100.00%
0 0 38.4698 13 89.9070 38.4698 148 57.21%
0+ 0 nan nan 82.2491 38.4698 nan 53.23%
0 0 38.4937 15 82.2491 Disjcuts:10 170 53.20%
0+ 0 nan nan 69.3993 38.4937 nan 44.53%
0 0 38.6252 21 69.3993 Disjcuts:11 181 44.34%
0+ 0 nan nan 61.4219 38.6252 nan 37.12%
0 0 38.9104 25 61.4219 Disjcuts:8 208 36.65%
0 0 39.1982 26 61.4219 Disjcuts:9 229 36.18%
0+ 0 nan nan 56.6731 39.1982 nan 30.83%
0 0 39.4103 27 56.6731 Disjcuts:7 252 30.46%
0+ 0 nan nan 53.9974 39.4103 nan 27.01%
0+ 0 nan nan 50.5118 39.4103 nan 21.98%
0 2 39.4132 26 50.5118 39.4613 252 21.88%
CPXPARAM_MIP_Cuts_Disjunctive 19
33
Node Left Objective IInf Best_Integer Best_Bound ItCnt Gap
0+ 0 nan nan 110.7059 0.0000 nan 100.00%
0+ 0 nan nan 93.8685 0.0000 nan 100.00%
0 0 0.0000 27 93.8685 0.0000 121 100.00%
0+ 0 nan nan 63.7992 0.0000 nan 100.00%
0+ 0 nan nan 33.7500 0.0000 nan 100.00%
0+ 0 nan nan 25.4909 0.0000 nan 100.00%
0+ 0 nan nan 21.6186 0.0000 nan 100.00%
0 2 0.0000 22 21.6186 0.0000 121 100.00%
CPXPARAM_MIP_Cuts_Disjunctive 0
34
Node Left Objective IInf Best_Integer Best_Bound ItCnt Gap
0+ 0 nan nan 110.7059 0.0000 nan 100.00%
0+ 0 nan nan 74.9711 0.0000 nan 100.00%
0 0 29.4698 13 74.9711 29.4698 166 60.69%
0+ 0 nan nan 57.9034 29.4698 nan 49.11%
0 0 29.6896 22 57.9034 Disjcuts:8 188 48.73%
0+ 0 nan nan 53.6524 29.6896 nan 44.66%
0 0 30.7425 21 53.6524 Disjcuts:18 204 42.70%
0 0 31.4534 20 53.6524 Disjcuts:13 230 41.38%
0 0 31.7063 22 53.6524 Disjcuts:5 246 40.90%
0 0 31.9658 20 53.6524 Disjcuts:6 263 40.42%
0 0 32.0488 21 53.6524 Disjcuts:3 272 40.27%
0 0 32.1771 21 53.6524 Disjcuts:1 276 40.03%
0 0 32.2083 22 53.6524 Disjcuts:3 280 39.97%
0+ 0 nan nan 48.2210 32.2083 nan 33.21%
0+ 0 nan nan 42.8476 32.2083 nan 24.83%
0 2 32.2083 22 42.8476 32.3094 280 24.59%
CPXPARAM_MIP_Cuts_Disjunctive 15
35
Node Left Objective IInf Best_Integer Best_Bound ItCnt Gap
0+ 0 nan nan 110.7059 0.0000 nan 100.00%
0+ 0 nan nan 74.9711 0.0000 nan 100.00%
0 0 0.0000 24 74.9711 0.0000 110 100.00%
0+ 0 nan nan 44.1599 0.0000 nan 100.00%
0 0 0.0000 18 44.1599 Disjcuts:2 120 100.00%
0+ 0 nan nan 23.3962 0.0000 nan 100.00%
0 0 0.0000 21 23.3962 Disjcuts:15 167 100.00%
0+ 0 nan nan 13.0851 0.0000 nan 100.00%
0+ 0 nan nan 11.2100 0.0000 nan 100.00%
0 2 0.0000 15 11.2100 0.0000 167 100.00%
CPXPARAM_MIP_Cuts_Disjunctive 0
36
Node Left Objective IInf Best_Integer Best_Bound ItCnt Gap
0+ 0 nan nan 123.7135 0.0000 nan 100.00%
0+ 0 nan nan 108.6148 0.0000 nan 100.00%
0+ 0 nan nan 99.0366 0.0000 nan 100.00%
0 0 33.0392 17 99.0366 33.0392 162 66.64%
0+ 0 nan nan 69.6923 33.0392 nan 52.59%
0 0 33.0392 22 69.6923 Disjcuts:4 181 52.59%
0+ 0 nan nan 67.1396 33.0392 nan 50.79%
0 0 34.1285 27 67.1396 Disjcuts:14 205 49.17%
0 0 34.8393 28 67.1396 Disjcuts:16 227 48.11%
0 0 35.7200 29 67.1396 Disjcuts:14 255 46.80%
0 0 36.0285 27 67.1396 Disjcuts:7 281 46.34%
0+ 0 nan nan 66.7587 36.0285 nan 46.03%
0 2 36.0285 27 66.7587 36.0376 281 46.02%
CPXPARAM_MIP_Cuts_Disjunctive 16
37
Node Left Objective IInf Best_Integer Best_Bound ItCnt Gap
0+ 0 nan nan 123.7135 0.0000 nan 100.00%
0+ 0 nan nan 108.6148 0.0000 nan 100.00%
0+ 0 nan nan 79.9437 0.0000 nan 100.00%
0 0 0.0000 27 79.9437 0.0000 123 100.00%
0+ 0 nan nan 60.3094 0.0000 nan 100.00%
0 0 0.0000 21 60.3094 Disjcuts:5 132 100.00%
0+ 0 nan nan 56.3559 0.0000 nan 100.00%
0 0 0.0000 21 56.3559 Disjcuts:19 182 100.00%
0+ 0 nan nan 30.9558 0.0000 nan 100.00%
0 0 0.0000 19 30.9558 Disjcuts:3 196 100.00%
0+ 0 nan nan 28.1289 0.0000 nan 100.00%
0+ 0 nan nan 26.3349 0.0000 nan 100.00%
0 2 0.0000 19 26.3349 0.0000 196 100.00%
CPXPARAM_MIP_Cuts_Disjunctive 3
38
Node Left Objective IInf Best_Integer Best_Bound ItCnt Gap
0+ 0 nan nan 123.7135 0.0000 nan 100.00%
0+ 0 nan nan 89.1896 0.0000 nan 100.00%
0 0 42.0392 9 89.1896 42.0392 158 52.87%
0+ 0 nan nan 50.0222 42.0392 nan 15.96%
0 0 42.0392 11 50.0222 Disjcuts:6 170 15.96%
0 0 42.0392 6 50.0222 Disjcuts:1 172 15.96%
0 0 42.0392 13 50.0222 Disjcuts:5 186 15.96%
0 2 42.1474 16 50.0222 42.4135 186 15.21%
CPXPARAM_MIP_Cuts_Disjunctive 10
39
Node Left Objective IInf Best_Integer Best_Bound ItCnt Gap
0+ 0 nan nan 123.7135 0.0000 nan 100.00%
0+ 0 nan nan 89.1896 0.0000 nan 100.00%
0 0 0.0000 24 89.1896 0.0000 125 100.00%
0+ 0 nan nan 42.3458 0.0000 nan 100.00%
0+ 0 nan nan 13.9847 0.0000 nan 100.00%
0+ 0 nan nan 12.1466 0.0000 nan 100.00%
0 2 0.0000 14 12.1466 0.0000 125 100.00%
CPXPARAM_MIP_Cuts_Disjunctive 0
